2 15
149 138 
0 98 94 17 12 54 89 1
1 28 30 75 73 64 32 2
2 73 72 37 43 51 56 2
3 88 89 47 44 19 26 1
4 15 10 69 61 98 59 2
5 14 12 61 58 56 53 1
6 72 75 1 2 52 100 1
7 7 14 45 52 21 100 1
8 62 59 26 34 65 86 1
9 79 72 30 27 71 17 1
10 69 78 26 24 56 39 1
11 41 49 55 60 14 69 1
12 15 18 64 61 63 27 1
13 27 30 69 69 67 99 1
14 49 47 79 73 85 75 1
